15340 1139
27555 4925
15471 51030
37990 25871
7244 4053
52190 7057
23384 8236
12838 47226
55656 54003
16067 64841
19471 15342
63409 63236
36344 52463
26517 54675
41514 35084
52917 2116
13419 41552
10843 2661
56708 30543
60887 47548
31471 56916
34830 12225
19693 42868
59737 18684
53623 20090
17285 17527
13684 10761
40301 14261
48793 43764
50112 57176
43628 8331
56480 49883
63889 6670
59060 64195
27471 50436
58200 28061
